1741202
75,86,27,69,70,14,48,56,103,92,74,15,23,24,109,90,25,16,107,29,46,51,84,59,2,81,94,52,45,1,5,98,35,101,82,34,79,67,4,30,6,32,43,61,85,95,44,63,20,3,83,9,77,66,10,64,54,58,104,22,91,89,11,49,97,88,12,40,68,42,28,8,18,50,87,73,78,96,7,108,106,19,105,55,99,62,33,47,65,36,60,71,93,76,13,21,80,17,53,102,100,39,31,41,38,37,26,72,57